
Gurobi 13.0.0 (linux64) logging started Thu Jan 15 02:42:54 2026

Set parameter LogFile to value "../experiments/network-n_40_s_2_rp_0-app_set-id_33_16_apps/submip_40_epr1_model_gurobi.log"
Set parameter TimeLimit to value 8.6155241232200933e+02
Gurobi Optimizer version 13.0.0 build v13.0.0rc1 (linux64 - "Ubuntu 24.04.3 LTS")

CPU model: Intel(R) Core(TM) Ultra 7 165H, instruction set [SSE2|AVX|AVX2]
Thread count: 22 physical cores, 22 logical processors, using up to 22 threads

Non-default parameters:
TimeLimit  8.6155241232200933e+02
LogToConsole  0

Academic license 2539022 - for non-commercial use only - registered to al___@studenti.unimi.it
Optimize a model with 23307 rows, 4160 columns and 52407 nonzeros (Min)
Model fingerprint: 0x7b5a02b4
Model has 4160 linear objective coefficients
Model has 126 quadratic constraints
Variable types: 0 continuous, 4160 integer (4160 binary)
Coefficient statistics:
  Matrix range     [1e+00, 9e+02]
  QMatrix range    [5e+01, 2e+02]
  Objective range  [1e+01, 2e+02]
  Bounds range     [1e+00, 1e+00]
  RHS range        [1e+00, 1e+09]
  QRHS range       [1e+02, 6e+02]

MIP start from previous solve did not produce a new incumbent solution
MIP start from previous solve violates constraint fixed_app_11_microservice_4 by 1.000000000

Presolve removed 22974 rows and 3444 columns
Presolve time: 0.04s
Presolved: 3409 rows, 3682 columns, 21095 nonzeros
Variable types: 0 continuous, 3682 integer (3682 binary)

Root relaxation: objective 3.388597e+03, 610 iterations, 0.02 seconds (0.03 work units)

    Nodes    |    Current Node    |     Objective Bounds      |     Work
 Expl Unexpl |  Obj  Depth IntInf | Incumbent    BestBd   Gap | It/Node Time

     0     0 3388.59654    0  148          - 3388.59654      -     -    0s
     0     0 3628.58728    0  176          - 3628.58728      -     -    0s
     0     0 3672.13839    0  194          - 3672.13839      -     -    0s
     0     0 3675.10892    0  199          - 3675.10892      -     -    0s
     0     0 3808.99431    0  203          - 3808.99431      -     -    0s
     0     0 3809.03207    0  204          - 3809.03207      -     -    0s
     0     0 3827.43257    0  229          - 3827.43257      -     -    0s
     0     0 3832.92904    0  230          - 3832.92904      -     -    1s
     0     0 3879.85540    0  249          - 3879.85540      -     -    1s
     0     0 3879.91753    0  239          - 3879.91753      -     -    1s
     0     0 3879.91753    0  233          - 3879.91753      -     -    1s
     0     2 3879.95355    0  230          - 3879.95355      -     -    1s

Cutting planes:
  Gomory: 3
  Cover: 45
  Implied bound: 5
  Clique: 20
  MIR: 48
  Knapsack: 6
  StrongCG: 17
  GUB cover: 5
  Zero half: 12
  RLT: 127
  Relax-and-lift: 24
  BQP: 22
  PSD: 1

Explored 1424 nodes (152926 simplex iterations) in 3.92 seconds (3.88 work units)
Thread count was 22 (of 22 available processors)

Solution count 0

Model is infeasible
Best objective -, best bound -, gap -

User-callback calls 3917, time in user-callback 0.00 sec
